[[26, 67, 7, 34, 46, 8, 52, 13, 54, 19, 35, 53, 14, 59, 11, 66, 65, 38, 10, 58, 31, 72, 39, 9, 25, 55, 50], [18, 24, 32, 44, 3, 49, 16, 33, 63, 23, 56, 43, 41, 42, 64, 22, 73, 62, 28, 74, 61, 21], [47, 36, 69, 71, 60, 70, 20, 37, 15, 57, 5, 48, 29, 27, 45, 4, 30, 2, 68, 6, 75, 76, 51, 17, 40, 12]]